100
32
24
14
23
1
18
9
8
25
14
24
10
11
30
32
15
29
9
27
8
8
8
17
8
25
23
2
25
18
27
25
17
13
10
32
6
4
21
32
17
14
5
15
19
5
15
18
23
1
5
24
18
17
19
31
23
23
21
3
7
30
5
7
12
4
20
18
1
19
12
6
9
21
5
18
8
13
21
3
12
17
23
29
30
20
5
14
17
4
21
18
18
5
25
14
29
25
25
9
12
17